data;

param num_top:=4;

#nodes and edges of the physical network
param n := 10;

set E := (1,2) (1,3) (1,7) (2,4) (2,7) (3,5) (4,8) (5,6) (5,7) (6,7) (6,9) (7,8) (7,9) (8,10) (9,10) ;

#nodes and edges of the virtual networks
set Nl[1] := 1 3 9 8 ;
set Nl[2] := 4 3 5 6 ;
set Nl[3] := 3 7 8 1 ;
set Nl[4] := 2 10 1 3 ;

set El[1] := (1,3) (3,9) (8,9) (1,8) ;
set El[2] := (3,4) (3,5) (5,6) (4,6) ;
set El[3] := (3,7) (7,8) (1,8) (1,3) ;
set El[4] := (2,10) (1,10) (1,3) (2,3) ;
